StudentsNr = 5;
InstructorsNr = 3;
DaysNr = 1;
SlotsPerDay = 10;
AvailabilitySlotsLenght = 2;
RoomNr = 1;
ProgrammNr = 2;
DegreeNr = 1;
RolesNr = 2;
CoursesNr = 4;
InstructorsProgramm = [{1}, {2}, {1}];
InstructorRolesPerProgramm = [|{}, {1}|{2}, {}|];
InstructorsAvailability = [|1, 1, 1, 1, 1, |1, 1, 1, 1, 1, |1, 1, 1, 1, 1|];
StudentsProgramm = [1, 2, 2, 2, 1];
StudentsDegree = [1, 1, 1, 1, 1];
StudentsSupervisorId = [3, 2, 2, 2, 3];
StudentsCourseIds = [{4}, {2}, {2}, {4}, {2}];
StudentsAvailability = [|0, 1, 0, 0, 1, |0, 0, 1, 1, 0, |0, 1, 1, 0, 1, |1, 1, 1, 1, 1, |0, 0, 1, 0, 0|];
TheoryticalMinCard = [0, 1, 1, 1, 1];
CoursesInstructorIds = [{1, 3}, {1}, {2}, {1, 3}];
RolesDemands = [0, 0];
RolesContinuity = [];
ExamLen = [2, 2, 2, 2, 2];
LunchTsMinLen = 1;
LunchStarts = [5..6];
SupervisorAvailable = 5;
OptimalLunchLenght = [2, 2];
OptimalStartTs = [1, 2];
OptimalFinishTs = [1, 9];
MinimizeRooms = 400;
RolesSoftContinuity = [|1, 2|0, 0|];
SameDegreeInRoom = 0;
Mergeability = 1;
